81 16 54 69 12 36 29 15 43 46 56 92 40 2 62 57 83 82 24 61 50 22 93 94 90 17 76 44 71 32 35 41 11 75 26 99 70 20 23 4 13 0 64 6 52 65 78 85 9 67 77 45 28 7 74 33 55 73 34 5 25 91 31 49 66 59 72 89 60 86 21 30 68 47 88 42 79 8 19 14 39 87 84 18 96 48 58 27 3 51 97 53 98 95 1 63 10 37 38 80